(set-logic ALL)
(set-option :produce-models true)
(declare-sort BoundSet 0)
(declare-sort UnboundSet 0)
(declare-fun IsHavingGreatTime (BoundSet) Bool)
(declare-fun IsLookingFor (BoundSet BoundSet) Bool)
(declare-fun IsHappy (BoundSet) Bool)
(assert (not (=> (and (exists ((a BoundSet)) (exists ((b BoundSet)) (and (IsHavingGreatTime a) (IsLookingFor a b)))) (and (forall ((c BoundSet)) (=> (IsHavingGreatTime c) (IsHappy c))) (forall ((d BoundSet)) (=> (IsHappy d) (IsHavingGreatTime d))))) (exists ((a BoundSet)) (IsHappy a)))))
(check-sat)
(get-model)